c colouring generated by benchmark framework
p edge 500 62624
v 1 1
v 2 40
v 3 7
v 4 51
v 5 28
v 6 0
v 7 31
v 8 67
v 9 2
v 10 31
v 11 60
v 12 44
v 13 28
v 14 0
v 15 71
v 16 50
v 17 40
v 18 23
v 19 37
v 20 4
v 21 23
v 22 29
v 23 41
v 24 14
v 25 40
v 26 51
v 27 44
v 28 51
v 29 27
v 30 20
v 31 41
v 32 26
v 33 38
v 34 9
v 35 25
v 36 48
v 37 61
v 38 35
v 39 25
v 40 7
v 41 34
v 42 24
v 43 56
v 44 22
v 45 57
v 46 30
v 47 16
v 48 33
v 49 12
v 50 15
v 51 0
v 52 14
v 53 22
v 54 10
v 55 48
v 56 60
v 57 32
v 58 60
v 59 28
v 60 17
v 61 56
v 62 46
v 63 40
v 64 26
v 65 28
v 66 1
v 67 22
v 68 61
v 69 53
v 70 36
v 71 8
v 72 59
v 73 64
v 74 46
v 75 55
v 76 11
v 77 55
v 78 36
v 79 54
v 80 64
v 81 11
v 82 30
v 83 53
v 84 10
v 85 6
v 86 56
v 87 36
v 88 52
v 89 25
v 90 16
v 91 38
v 92 48
v 93 15
v 94 22
v 95 67
v 96 24
v 97 32
v 98 61
v 99 48
v 100 13
v 101 36
v 102 5
v 103 18
v 104 64
v 105 18
v 106 4
v 107 29
v 108 16
v 109 69
v 110 34
v 111 8
v 112 22
v 113 35
v 114 20
v 115 66
v 116 49
v 117 41
v 118 33
v 119 18
v 120 26
v 121 47
v 122 24
v 123 11
v 124 71
v 125 42
v 126 24
v 127 53
v 128 68
v 129 57
v 130 34
v 131 55
v 132 43
v 133 16
v 134 0
v 135 41
v 136 17
v 137 9
v 138 61
v 139 9
v 140 23
v 141 32
v 142 13
v 143 32
v 144 62
v 145 61
v 146 7
v 147 45
v 148 59
v 149 22
v 150 52
v 151 8
v 152 48
v 153 14
v 154 34
v 155 29
v 156 47
v 157 37
v 158 5
v 159 48
v 160 45
v 161 60
v 162 70
v 163 45
v 164 59
v 165 60
v 166 70
v 167 49
v 168 53
v 169 63
v 170 62
v 171 63
v 172 34
v 173 10
v 174 0
v 175 10
v 176 62
v 177 57
v 178 5
v 179 53
v 180 45
v 181 66
v 182 26
v 183 0
v 184 58
v 185 52
v 186 40
v 187 18
v 188 4
v 189 33
v 190 65
v 191 37
v 192 10
v 193 9
v 194 9
v 195 13
v 196 69
v 197 46
v 198 61
v 199 13
v 200 28
v 201 58
v 202 68
v 203 21
v 204 7
v 205 28
v 206 65
v 207 19
v 208 19
v 209 23
v 210 8
v 211 2
v 212 60
v 213 17
v 214 16
v 215 43
v 216 50
v 217 42
v 218 69
v 219 54
v 220 66
v 221 2
v 222 35
v 223 71
v 224 15
v 225 24
v 226 61
v 227 28
v 228 41
v 229 67
v 230 5
v 231 32
v 232 15
v 233 53
v 234 59
v 235 54
v 236 63
v 237 59
v 238 20
v 239 9
v 240 48
v 241 13
v 242 30
v 243 36
v 244 1
v 245 24
v 246 11
v 247 31
v 248 60
v 249 30
v 250 45
v 251 22
v 252 42
v 253 28
v 254 6
v 255 35
v 256 15
v 257 13
v 258 46
v 259 19
v 260 30
v 261 1
v 262 37
v 263 7
v 264 62
v 265 21
v 266 6
v 267 3
v 268 51
v 269 55
v 270 10
v 271 12
v 272 14
v 273 32
v 274 15
v 275 20
v 276 50
v 277 61
v 278 7
v 279 57
v 280 17
v 281 39
v 282 65
v 283 54
v 284 1
v 285 44
v 286 46
v 287 26
v 288 25
v 289 33
v 290 52
v 291 19
v 292 39
v 293 69
v 294 54
v 295 40
v 296 29
v 297 55
v 298 14
v 299 3
v 300 5
v 301 18
v 302 1
v 303 27
v 304 58
v 305 59
v 306 57
v 307 25
v 308 10
v 309 46
v 310 44
v 311 38
v 312 43
v 313 31
v 314 8
v 315 66
v 316 19
v 317 19
v 318 68
v 319 27
v 320 68
v 321 50
v 322 6
v 323 3
v 324 4
v 325 55
v 326 39
v 327 50
v 328 30
v 329 1
v 330 16
v 331 12
v 332 24
v 333 34
v 334 59
v 335 22
v 336 29
v 337 45
v 338 20
v 339 50
v 340 38
v 341 28
v 342 9
v 343 3
v 344 4
v 345 11
v 346 39
v 347 65
v 348 27
v 349 12
v 350 71
v 351 54
v 352 49
v 353 12
v 354 12
v 355 16
v 356 51
v 357 62
v 358 3
v 359 7
v 360 34
v 361 56
v 362 37
v 363 67
v 364 26
v 365 65
v 366 21
v 367 15
v 368 43
v 369 22
v 370 8
v 371 51
v 372 29
v 373 13
v 374 38
v 375 35
v 376 35
v 377 66
v 378 26
v 379 46
v 380 2
v 381 42
v 382 55
v 383 62
v 384 31
v 385 40
v 386 29
v 387 21
v 388 56
v 389 65
v 390 49
v 391 18
v 392 66
v 393 36
v 394 37
v 395 59
v 396 13
v 397 0
v 398 50
v 399 11
v 400 8
v 401 52
v 402 42
v 403 28
v 404 43
v 405 27
v 406 18
v 407 31
v 408 33
v 409 17
v 410 49
v 411 33
v 412 21
v 413 55
v 414 12
v 415 47
v 416 63
v 417 2
v 418 38
v 419 39
v 420 5
v 421 12
v 422 23
v 423 26
v 424 20
v 425 30
v 426 38
v 427 68
v 428 7
v 429 8
v 430 21
v 431 64
v 432 70
v 433 19
v 434 9
v 435 21
v 436 31
v 437 43
v 438 14
v 439 45
v 440 10
v 441 64
v 442 71
v 443 51
v 444 64
v 445 4
v 446 63
v 447 39
v 448 23
v 449 47
v 450 32
v 451 36
v 452 54
v 453 55
v 454 40
v 455 62
v 456 53
v 457 49
v 458 42
v 459 19
v 460 2
v 461 50
v 462 20
v 463 43
v 464 35
v 465 40
v 466 9
v 467 3
v 468 4
v 469 5
v 470 25
v 471 6
v 472 11
v 473 52
v 474 6
v 475 6
v 476 58
v 477 38
v 478 37
v 479 36
v 480 27
v 481 2
v 482 42
v 483 11
v 484 57
v 485 47
v 486 39
v 487 27
v 488 27
v 489 17
v 490 4
v 491 34
v 492 23
v 493 16
v 494 56
v 495 4
v 496 47
v 497 70
v 498 14
v 499 43
v 500 63
